# Solution for model pli-pa
# Objective value = 3
C0 0
C1 0
C2 0
C3 0
C4 0
C5 0
C6 0
C7 0
C8 1
C9 1
C10 1
C11 1
C12 1
C13 1
C14 1
C15 1
C16 1
C17 1
C18 1
C19 1
C20 1
C21 1
C22 1
C23 1
C24 1
C25 1
C26 1
C27 1
C28 1
C29 1
C30 1
C31 1
C32 1
C33 1
C34 0
C35 0
C36 0
C37 0
C38 0
C39 0
C40 0
C41 1
C42 1
C43 1
C44 1
C45 1
C46 1
C47 1
C48 1
C49 1
C50 1
C51 1
C52 1
C53 1
C54 1
C55 1
C56 1
C57 1
C58 1
C59 1
C60 1
C61 1
C62 1
C63 1
C64 1
C65 1
C66 1
C67 1
C68 0
C69 0
C70 0
C71 0
C72 0
C73 1
C74 1
C75 1
C76 1
C77 1
C78 1
C79 1
C80 1
C81 1
C82 1
C83 1
C84 1
C85 1
C86 1
C87 1
C88 1
C89 1
C90 1
C91 1
C92 1
C93 1
C94 1
C95 1
C96 1
C97 1
C98 1
C99 1
C100 1
C101 1
C102 1
C103 1
C104 1
C105 1
C106 1
C107 1
C108 1
C109 1
C110 1
C111 1
C112 1
C113 1
C114 1
C115 1
C116 1
C117 1
C118 1
C119 1
C120 1
C121 1
C122 1
C123 1
C124 1
C125 1
C126 1
C127 1
C128 1
C129 1
C130 1
C131 1
C132 1
C133 1
C134 1
C135 1
C136 0
C137 0
C138 0
C139 0
C140 0
C141 0
C142 0
C143 0
C144 0
C145 1
C146 1
C147 1
C148 1
C149 1
C150 1
C151 1
C152 1
C153 1
C154 1
C155 1
C156 1
C157 1
C158 1
C159 1
C160 1
C161 1
C162 1
C163 1
C164 1
C165 1
C166 1
C167 1
C168 1
C169 1
C170 0
C171 0
C172 0
C173 0
C174 0
C175 0
C176 0
C177 0
C178 0
C179 1
C180 1
C181 1
C182 1
C183 1
C184 1
C185 1
C186 1
C187 1
C188 1
C189 1
C190 1
C191 1
C192 1
C193 1
C194 1
C195 1
C196 1
C197 1
C198 1
C199 1
C200 1
C201 1
C202 1
C203 1
C204 0
C205 0
C206 0
C207 0
C208 0
C209 0
C210 0
C211 0
C212 0
C213 0
C214 1
C215 1
C216 1
C217 1
C218 1
C219 1
C220 1
C221 1
C222 1
C223 1
C224 1
C225 1
C226 1
C227 1
C228 1
C229 1
C230 1
C231 1
C232 1
C233 1
C234 1
C235 1
C236 1
C237 1
C238 0
C239 0
C240 0
C241 0
C242 0
C243 0
C244 1
C245 1
C246 1
C247 1
C248 1
C249 1
C250 1
C251 1
C252 1
C253 1
C254 1
C255 1
C256 1
C257 1
C258 1
C259 1
C260 1
C261 1
C262 1
C263 1
C264 1
C265 1
C266 1
C267 1
C268 1
C269 1
C270 1
C271 1
C272 0
C273 0
C274 0
C275 0
C276 1
C277 1
C278 1
C279 1
C280 1
C281 1
C282 1
C283 1
C284 1
C285 1
C286 1
C287 1
C288 1
C289 1
C290 1
C291 1
C292 1
C293 1
C294 1
C295 1
C296 1
C297 1
C298 1
C299 1
C300 1
C301 1
C302 1
C303 1
C304 1
C305 1
C306 1
C307 1
C308 1
C309 1
C310 1
C311 1
C312 1
C313 1
C314 1
C315 1
C316 1
C317 1
C318 1
C319 1
C320 1
C321 1
C322 1
C323 1
C324 1
C325 1
C326 1
C327 1
C328 1
C329 1
C330 1
C331 1
C332 1
C333 1
C334 1
C335 1
C336 1
C337 1
C338 1
C339 1
C340 0
C341 0
C342 0
C343 0
C344 0
C345 0
C346 0
C347 0
C348 0
C349 1
C350 1
C351 1
C352 1
C353 1
C354 1
C355 1
C356 1
C357 1
C358 1
C359 1
C360 1
C361 1
C362 1
C363 1
C364 1
C365 1
C366 1
C367 1
C368 1
C369 1
C370 1
C371 1
C372 1
C373 1
C374 0
C375 1
C376 1
C377 1
C378 1
C379 1
C380 1
C381 1
C382 1
C383 1
C384 1
C385 1
C386 1
C387 1
C388 1
C389 1
C390 1
C391 1
C392 1
C393 1
C394 1
C395 1
C396 1
C397 1
C398 1
C399 1
C400 1
C401 1
C402 1
C403 1
C404 1
C405 1
C406 1
C407 1
C408 0
C409 0
C410 0
C411 0
C412 0
C413 0
C414 1
C415 1
C416 1
C417 1
C418 1
C419 1
C420 1
C421 1
C422 1
C423 1
C424 1
C425 1
C426 1
C427 1
C428 1
C429 1
C430 1
C431 1
C432 1
C433 1
C434 1
C435 1
C436 1
C437 1
C438 1
C439 1
C440 1
C441 1
C442 0
C443 0
C444 0
C445 0
C446 0
C447 0
C448 0
C449 0
C450 1
C451 1
C452 1
C453 1
C454 1
C455 1
C456 1
C457 1
C458 1
C459 1
C460 1
C461 1
C462 1
C463 1
C464 1
C465 1
C466 1
C467 1
C468 1
C469 1
C470 1
C471 1
C472 1
C473 1
C474 1
C475 1
C476 0
C477 0
C478 0
C479 0
C480 0
C481 0
C482 0
C483 0
C484 1
C485 1
C486 1
C487 1
C488 1
C489 1
C490 1
C491 1
C492 1
C493 1
C494 1
C495 1
C496 1
C497 1
C498 1
C499 1
C500 1
C501 1
C502 1
C503 1
C504 1
C505 1
C506 1
C507 1
C508 1
C509 1
C510 0
C511 0
C512 0
C513 0
C514 0
C515 0
C516 0
C517 0
C518 1
C519 1
C520 1
C521 1
C522 1
C523 1
C524 1
C525 1
C526 1
C527 1
C528 1
C529 1
C530 1
C531 1
C532 1
C533 1
C534 1
C535 1
C536 1
C537 1
C538 1
C539 1
C540 1
C541 1
C542 1
C543 1
C544 0
C545 0
C546 0
C547 0
C548 0
C549 0
C550 0
C551 1
C552 1
C553 1
C554 1
C555 1
C556 1
C557 1
C558 1
C559 1
C560 1
C561 1
C562 1
C563 1
C564 1
C565 1
C566 1
C567 1
C568 1
C569 1
C570 1
C571 1
C572 1
C573 1
C574 1
C575 1
C576 1
C577 1
C578 0
C579 0
C580 0
C581 1
C582 1
C583 1
C584 1
C585 1
C586 1
C587 1
C588 1
C589 1
C590 1
C591 1
C592 1
C593 1
C594 1
C595 1
C596 1
C597 1
C598 1
C599 1
C600 1
C601 1
C602 1
C603 1
C604 1
C605 1
C606 1
C607 1
C608 1
C609 1
C610 1
C611 1
C612 0
C613 1
C614 1
C615 1
C616 1
C617 1
C618 1
C619 1
C620 1
C621 1
C622 1
C623 1
C624 1
C625 1
C626 1
C627 1
C628 1
C629 1
C630 1
C631 1
C632 1
C633 1
C634 1
C635 1
C636 1
C637 1
C638 1
C639 1
C640 1
C641 1
C642 1
C643 1
C644 1
C645 1
C646 0
C647 0
C648 0
C649 0
C650 1
C651 1
C652 1
C653 1
C654 1
C655 1
C656 1
C657 1
C658 1
C659 1
C660 1
C661 1
C662 1
C663 1
C664 1
C665 1
C666 1
C667 1
C668 1
C669 1
C670 1
C671 1
C672 1
C673 1
C674 1
C675 1
C676 1
C677 1
C678 1
C679 1
C680 0
C681 0
C682 0
C683 0
C684 0
C685 0
C686 1
C687 1
C688 1
C689 1
C690 1
C691 1
C692 1
C693 1
C694 1
C695 1
C696 1
C697 1
C698 1
C699 1
C700 1
C701 1
C702 1
C703 1
C704 1
C705 1
C706 1
C707 1
C708 1
C709 1
C710 1
C711 1
C712 1
C713 1
C714 0
C715 0
C716 1
C717 1
C718 1
C719 1
C720 1
C721 1
C722 1
C723 1
C724 1
C725 1
C726 1
C727 1
C728 1
C729 1
C730 1
C731 1
C732 1
C733 1
C734 1
C735 1
C736 1
C737 1
C738 1
C739 1
C740 1
C741 1
C742 1
C743 1
C744 1
C745 1
C746 1
C747 1
C748 0
C749 0
C750 0
C751 0
C752 0
C753 0
C754 0
C755 0
C756 0
C757 0
C758 1
C759 1
C760 1
C761 1
C762 1
C763 1
C764 1
C765 1
C766 1
C767 1
C768 1
C769 1
C770 1
C771 1
C772 1
C773 1
C774 1
C775 1
C776 1
C777 1
C778 1
C779 1
C780 1
C781 1
C782 1
C783 1
C784 1
C785 1
C786 1
C787 1
C788 1
C789 1
C790 1
C791 1
C792 1
C793 1
C794 1
C795 1
C796 1
C797 1
C798 1
C799 1
C800 1
C801 1
C802 1
C803 1
C804 1
C805 1
C806 1
C807 1
C808 1
C809 1
C810 1
C811 1
C812 1
C813 1
C814 1
C815 1
C816 0
C817 1
C818 1
C819 1
C820 1
C821 1
C822 1
C823 1
C824 1
C825 1
C826 1
C827 1
C828 1
C829 1
C830 1
C831 1
C832 1
C833 1
C834 1
C835 1
C836 1
C837 1
C838 1
C839 1
C840 1
C841 1
C842 1
C843 1
C844 1
C845 1
C846 1
C847 1
C848 1
C849 1
C850 0
C851 1
C852 1
C853 1
C854 1
C855 1
C856 1
C857 1
C858 1
C859 1
C860 1
C861 1
C862 1
C863 1
C864 1
C865 1
C866 1
C867 1
C868 1
C869 1
C870 1
C871 1
C872 1
C873 1
C874 1
C875 1
C876 1
C877 1
C878 1
C879 1
C880 1
C881 1
C882 1
C883 1
C884 0
C885 1
C886 1
C887 1
C888 1
C889 1
C890 1
C891 1
C892 1
C893 1
C894 1
C895 1
C896 1
C897 1
C898 1
C899 1
C900 1
C901 1
C902 1
C903 1
C904 1
C905 1
C906 1
C907 1
C908 1
C909 1
C910 1
C911 1
C912 1
C913 1
C914 1
C915 1
C916 1
C917 1
C918 0
C919 1
C920 1
C921 1
C922 1
C923 1
C924 1
C925 1
C926 1
C927 1
C928 1
C929 1
C930 1
C931 1
C932 1
C933 1
C934 1
C935 1
C936 1
C937 1
C938 1
C939 1
C940 1
C941 1
C942 1
C943 1
C944 1
C945 1
C946 1
C947 1
C948 1
C949 1
C950 1
C951 1
C952 0
C953 1
C954 1
C955 1
C956 1
C957 1
C958 1
C959 1
C960 1
C961 1
C962 1
C963 1
C964 1
C965 1
C966 1
C967 1
C968 1
C969 1
C970 1
C971 1
C972 1
C973 1
C974 1
C975 1
C976 1
C977 1
C978 1
C979 1
C980 1
C981 1
C982 1
C983 1
C984 1
C985 1
C986 0
C987 0
C988 0
C989 1
C990 1
C991 1
C992 1
C993 1
C994 1
C995 1
C996 1
C997 1
C998 1
C999 1
C1000 1
C1001 1
C1002 1
C1003 1
C1004 1
C1005 1
C1006 1
C1007 1
C1008 1
C1009 1
C1010 1
C1011 1
C1012 1
C1013 1
C1014 1
C1015 1
C1016 1
C1017 1
C1018 1
C1019 1
C1020 0
C1021 0
C1022 0
C1023 0
C1024 0
C1025 0
C1026 0
C1027 0
C1028 1
C1029 1
C1030 1
C1031 1
C1032 1
C1033 1
C1034 1
C1035 1
C1036 1
C1037 1
C1038 1
C1039 1
C1040 1
C1041 1
C1042 1
C1043 1
C1044 1
C1045 1
C1046 1
C1047 1
C1048 1
C1049 1
C1050 1
C1051 1
C1052 1
C1053 1
C1054 0
C1055 0
C1056 1
C1057 1
C1058 1
C1059 1
C1060 1
C1061 1
C1062 1
C1063 1
C1064 1
C1065 1
C1066 1
C1067 1
C1068 1
C1069 1
C1070 1
C1071 1
C1072 1
C1073 1
C1074 1
C1075 1
C1076 1
C1077 1
C1078 1
C1079 1
C1080 1
C1081 1
C1082 1
C1083 1
C1084 1
C1085 1
C1086 1
C1087 1
C1088 0
C1089 0
C1090 0
C1091 0
C1092 0
C1093 0
C1094 0
C1095 0
C1096 1
C1097 1
C1098 1
C1099 1
C1100 1
C1101 1
C1102 1
C1103 1
C1104 1
C1105 1
C1106 1
C1107 1
C1108 1
C1109 1
C1110 1
C1111 1
C1112 1
C1113 1
C1114 1
C1115 1
C1116 1
C1117 1
C1118 1
C1119 1
C1120 1
C1121 1
C1122 0
C1123 1
C1124 1
C1125 1
C1126 1
C1127 1
C1128 1
C1129 1
C1130 1
C1131 1
C1132 1
C1133 1
C1134 1
C1135 1
C1136 1
C1137 1
C1138 1
C1139 1
C1140 1
C1141 1
C1142 1
C1143 1
C1144 1
C1145 1
C1146 1
C1147 1
C1148 1
C1149 1
C1150 1
C1151 1
C1152 1
C1153 1
C1154 1
C1155 1
